-127 -128 -129 -130 -131 -132 -133 -134 -135 136 -137 -138 -139 -140 -141 -142 143 -144 -145 -146 -147 -148 149 -150 -151 -302 -303 -304 -305 -306 -307 -308 -309 -310 -311 -312 -313 -314 -315 -316 317 -318 -319 -320 -321 -322 -323 -324 325 -326 -477 -478 -479 -480 481 -482 -483 -484 485 -486 -487 -488 -489 -490 -491 -492 -493 -494 495 -496 -497 -498 -499 -500 -501 -652 -653 -654 655 -656 657 -658 -659 -660 -661 662 -663 -664 -665 -666 -667 -668 669 -670 -671 -672 -673 -674 -675 -676 827 -828 -829 -830 -831 -832 -833 -834 -835 836 -837 -838 839 -840 -841 -842 -843 -844 845 -846 -847 -848 -849 -850 -851 -1002 -1003 -1004 -1005 -1006 -1007 -1008 -1009 -1010 -1011 -1012 -1013 -1014 1015 -1016 -1017 -1018 -1019 -1020 -1021 1022 -1023 -1024 -1025 -1026 -1177 -1178 -1179 -1180 -1181 -1182 -1183 1184 -1185 -1186 1187 -1188 -1189 -1190 -1191 -1192 -1193 -1194 -1195 -1196 -1197 -1198 -1199 -1200 -1201 1352 -1353 -1354 -1355 -1356 1357 -1358 -1359 -1360 -1361 -1362 -1363 -1364 -1365 -1366 -1367 -1368 -1369 -1370 -1371 -1372 -1373 -1374 -1375 1376 -1527 -1528 -1529 -1530 -1531 -1532 -1533 -1534 -1535 -1536 -1537 1538 -1539 -1540 -1541 1542 -1543 -1544 -1545 -1546 -1547 -1548 -1549 -1550 -1551 -1702 -1703 -1704 -1705 1706 -1707 -1708 -1709 -1710 -1711 -1712 -1713 -1714 1715 -1716 -1717 -1718 -1719 -1720 -1721 -1722 -1723 1724 -1725 -1726 -1877 -1878 -1879 1880 -1881 -1882 -1883 -1884 -1885 -1886 -1887 -1888 -1889 -1890 1891 -1892 1893 -1894 -1895 -1896 -1897 -1898 -1899 -1900 -1901 -2052 -2053 -2054 -2055 -2056 2057 -2058 -2059 -2060 -2061 -2062 2063 -2064 -2065 -2066 -2067 -2068 2069 -2070 -2071 2072 -2073 -2074 -2075 -2076 -2227 -2228 -2229 -2230 -2231 -2232 2233 -2234 -2235 -2236 -2237 -2238 -2239 -2240 -2241 -2242 -2243 -2244 -2245 2246 -2247 -2248 2249 -2250 -2251 2402 -2403 -2404 -2405 -2406 -2407 -2408 2409 -2410 -2411 -2412 -2413 -2414 -2415 -2416 -2417 -2418 -2419 2420 -2421 -2422 -2423 -2424 -2425 -2426 -2577 2578 -2579 -2580 -2581 -2582 2583 -2584 -2585 -2586 -2587 -2588 -2589 -2590 -2591 -2592 2593 -2594 -2595 -2596 -2597 -2598 -2599 -2600 -2601 -2752 -2753 -2754 -2755 -2756 -2757 -2758 -2759 -2760 2761 -2762 -2763 -2764 -2765 -2766 -2767 -2768 2769 -2770 -2771 2772 -2773 -2774 -2775 -2776 -2927 -2928 -2929 -2930 2931 -2932 -2933 -2934 -2935 -2936 -2937 -2938 -2939 -2940 2941 -2942 -2943 -2944 -2945 2946 -2947 -2948 -2949 2950 -2951 -3102 3103 -3104 -3105 -3106 -3107 -3108 -3109 -3110 -3111 -3112 -3113 3114 -3115 -3116 3117 -3118 -3119 -3120 -3121 -3122 -3123 -3124 -3125 -3126 -3277 3278 -3279 -3280 -3281 -3282 -3283 -3284 -3285 -3286 -3287 -3288 -3289 -3290 -3291 -3292 -3293 -3294 -3295 -3296 -3297 -3298 -3299 -3300 -3301 -3452 -3453 -3454 3455 -3456 -3457 -3458 -3459 -3460 -3461 -3462 -3463 -3464 -3465 3466 -3467 -3468 -3469 -3470 -3471 -3472 -3473 -3474 -3475 -3476 -3627 -3628 -3629 -3630 -3631 -3632 -3633 -3634 -3635 -3636 3637 -3638 -3639 -3640 -3641 -3642 -3643 -3644 -3645 -3646 -3647 -3648 -3649 -3650 -3651 